NAME : rnd22_20.tsp
TYPE : TSP
DIMENSION : 20
EDGE_WEIGHT_TYPE : EUC_2D
NODE_COORD_SECTION
1 897 964
2 804 74
3 247 981
4 169 921
5 367 782
6 57 84
7 743 569
8 429 185
9 325 907
10 212 735
11 38 175
12 546 623
13 227 864
14 684 829
15 426 662
16 629 620
17 112 889
18 117 373
19 70 715
20 479 938
